Route #1: 51 3 44 49 24 18 55 25 50 32 40 17
Route #2: 26 58 10 31 9 39 72 12
Route #3: 6 33 73 1 43 42 64 41 56 23 63 16
Route #4: 67 34 46 8 19 54 13 27 52 4
Route #5: 45 29 57 15 5 37 20 70 60 71 69 36 47 48
Route #6: 75 30 74 28 21 61 22 62 2 68
Route #7: 7 53 11 38 65 66 59 14 35
cost 701
